linear programming/gurobi/sddp/iter1_sub_1^1.lp
\ LP format - for model browsing. Use MPS format to capture full model detail.
Minimize
  q_2^1 + 2 I_1^1 + 15 B_1^1 + theta_3^1 - 75 Constant
Subject To
 R0: I_1^1 - B_1^1 = -5
Bounds
 theta_3^1 >= -100
 Constant = 1
End
