linear programming/gurobi/sddp/iter1_sub_1^1.sol
# Objective value = -100
q_2^1 0
I_1^1 0
B_1^1 5
theta_3^1 -100
